max: +x11+x12+x13+x14+x15+x16+x17+x21+x22+x23+x24+x25+x26+x27+x31+x32+x33+x34+x35+x36+x37+x41+x42+x43+x44+x45+x46+x47+x51+x52+x53+x54+x55+x56+x57+x61+x62+x63+x64+x65+x66+x67+x71+x72+x73+x74+x75+x76+x77;
+x23+x32-3x11 >= 0;
+x31+x24+x33-3x12 >= 0;
+x32+x21+x25+x34-3x13 >= 0;
+x33+x22+x26+x35-3x14 >= 0;
+x34+x23+x27+x36-3x15 >= 0;
+x35+x24+x37-3x16 >= 0;
+x36+x25-3x17 >= 0;
+x13+x33+x42-3x21 >= 0;
+x14+x41+x34+x43-3x22 >= 0;
+x11+x15+x42+x31+x35+x44-3x23 >= 0;
+x12+x16+x43+x32+x36+x45-3x24 >= 0;
+x13+x17+x44+x33+x37+x46-3x25 >= 0;
+x14+x45+x34+x47-3x26 >= 0;
+x15+x46+x35-3x27 >= 0;
+x23+x12+x43+x52-3x31 >= 0;
+x11+x24+x51+x13+x44+x53-3x32 >= 0;
+x21+x12+x25+x52+x41+x14+x45+x54-3x33 >= 0;
+x22+x13+x26+x53+x42+x15+x46+x55-3x34 >= 0;
+x23+x14+x27+x54+x43+x16+x47+x56-3x35 >= 0;
+x24+x15+x55+x44+x17+x57-3x36 >= 0;
+x25+x16+x56+x45-3x37 >= 0;
+x33+x22+x53+x62-3x41 >= 0;
+x21+x34+x61+x23+x54+x63-3x42 >= 0;
+x31+x22+x35+x62+x51+x24+x55+x64-3x43 >= 0;
+x32+x23+x36+x63+x52+x25+x56+x65-3x44 >= 0;
+x33+x24+x37+x64+x53+x26+x57+x66-3x45 >= 0;
+x34+x25+x65+x54+x27+x67-3x46 >= 0;
+x35+x26+x66+x55-3x47 >= 0;
+x43+x32+x63+x72-3x51 >= 0;
+x31+x44+x71+x33+x64+x73-3x52 >= 0;
+x41+x32+x45+x72+x61+x34+x65+x74-3x53 >= 0;
+x42+x33+x46+x73+x62+x35+x66+x75-3x54 >= 0;
+x43+x34+x47+x74+x63+x36+x67+x76-3x55 >= 0;
+x44+x35+x75+x64+x37+x77-3x56 >= 0;
+x45+x36+x76+x65-3x57 >= 0;
+x53+x42+x73-3x61 >= 0;
+x41+x54+x43+x74-3x62 >= 0;
+x51+x42+x55+x71+x44+x75-3x63 >= 0;
+x52+x43+x56+x72+x45+x76-3x64 >= 0;
+x53+x44+x57+x73+x46+x77-3x65 >= 0;
+x54+x45+x74+x47-3x66 >= 0;
+x55+x46+x75-3x67 >= 0;
+x63+x52-3x71 >= 0;
+x51+x64+x53-3x72 >= 0;
+x61+x52+x65+x54-3x73 >= 0;
+x62+x53+x66+x55-3x74 >= 0;
+x63+x54+x67+x56-3x75 >= 0;
+x64+x55+x57-3x76 >= 0;
+x65+x56-3x77 >= 0;
+x23+x32+5x11 <= 8;
+x31+x24+x33+5x12 <= 8;
+x32+x21+x25+x34+5x13 <= 8;
+x33+x22+x26+x35+5x14 <= 8;
+x34+x23+x27+x36+5x15 <= 8;
+x35+x24+x37+5x16 <= 8;
+x36+x25+5x17 <= 8;
+x13+x33+x42+5x21 <= 8;
+x14+x41+x34+x43+5x22 <= 8;
+x11+x15+x42+x31+x35+x44+5x23 <= 8;
+x12+x16+x43+x32+x36+x45+5x24 <= 8;
+x13+x17+x44+x33+x37+x46+5x25 <= 8;
+x14+x45+x34+x47+5x26 <= 8;
+x15+x46+x35+5x27 <= 8;
+x23+x12+x43+x52+5x31 <= 8;
+x11+x24+x51+x13+x44+x53+5x32 <= 8;
+x21+x12+x25+x52+x41+x14+x45+x54+5x33 <= 8;
+x22+x13+x26+x53+x42+x15+x46+x55+5x34 <= 8;
+x23+x14+x27+x54+x43+x16+x47+x56+5x35 <= 8;
+x24+x15+x55+x44+x17+x57+5x36 <= 8;
+x25+x16+x56+x45+5x37 <= 8;
+x33+x22+x53+x62+5x41 <= 8;
+x21+x34+x61+x23+x54+x63+5x42 <= 8;
+x31+x22+x35+x62+x51+x24+x55+x64+5x43 <= 8;
+x32+x23+x36+x63+x52+x25+x56+x65+5x44 <= 8;
+x33+x24+x37+x64+x53+x26+x57+x66+5x45 <= 8;
+x34+x25+x65+x54+x27+x67+5x46 <= 8;
+x35+x26+x66+x55+5x47 <= 8;
+x43+x32+x63+x72+5x51 <= 8;
+x31+x44+x71+x33+x64+x73+5x52 <= 8;
+x41+x32+x45+x72+x61+x34+x65+x74+5x53 <= 8;
+x42+x33+x46+x73+x62+x35+x66+x75+5x54 <= 8;
+x43+x34+x47+x74+x63+x36+x67+x76+5x55 <= 8;
+x44+x35+x75+x64+x37+x77+5x56 <= 8;
+x45+x36+x76+x65+5x57 <= 8;
+x53+x42+x73+5x61 <= 8;
+x41+x54+x43+x74+5x62 <= 8;
+x51+x42+x55+x71+x44+x75+5x63 <= 8;
+x52+x43+x56+x72+x45+x76+5x64 <= 8;
+x53+x44+x57+x73+x46+x77+5x65 <= 8;
+x54+x45+x74+x47+5x66 <= 8;
+x55+x46+x75+5x67 <= 8;
+x63+x52+5x71 <= 8;
+x51+x64+x53+5x72 <= 8;
+x61+x52+x65+x54+5x73 <= 8;
+x62+x53+x66+x55+5x74 <= 8;
+x63+x54+x67+x56+5x75 <= 8;
+x64+x55+x57+5x76 <= 8;
+x65+x56+5x77 <= 8;
bin x11,x12,x13,x14,x15,x16,x17,x21,x22,x23,x24,x25,x26,x27,x31,x32,x33,x34,x35,x36,x37,x41,x42,x43,x44,x45,x46,x47,x51,x52,x53,x54,x55,x56,x57,x61,x62,x63,x64,x65,x66,x67,x71,x72,x73,x74,x75,x76,x77;